p tw 176 39601 2 
1 90 
1 92 
1 93 
1 96 
1 97 
1 99 
1 102 
1 104 
1 105 
1 107 
1 109 
1 111 
1 113 
1 116 
1 117 
1 119 
1 122 
1 123 
1 126 
1 128 
1 130 
1 132 
1 133 
1 135 
1 138 
1 140 
1 141 
1 144 
1 145 
1 148 
1 150 
1 152 
1 154 
1 155 
1 158 
1 160 
1 161 
1 164 
1 165 
1 167 
1 170 
1 172 
1 173 
1 175 
2 89 
2 91 
2 94 
2 95 
2 98 
2 100 
2 101 
2 103 
2 106 
2 108 
2 110 
2 112 
2 114 
2 115 
2 118 
2 120 
2 121 
2 124 
2 125 
2 127 
2 129 
2 131 
2 134 
2 136 
2 137 
2 139 
2 142 
2 143 
2 146 
2 147 
2 149 
2 151 
2 153 
2 156 
2 157 
2 159 
2 162 
2 163 
2 166 
2 168 
2 169 
2 171 
2 174 
2 176 
3 4 
3 90 
3 91 
3 94 
3 95 
3 97 
3 100 
3 101 
3 104 
3 105 
3 108 
3 110 
3 112 
3 114 
3 116 
3 118 
3 119 
3 122 
3 124 
3 126 
3 128 
3 129 
3 132 
3 133 
3 135 
3 138 
3 140 
3 141 
3 143 
3 145 
3 147 
3 149 
3 151 
3 153 
3 155 
3 157 
3 159 
3 162 
3 164 
3 165 
3 168 
3 170 
3 172 
3 173 
3 176 
4 89 
4 92 
4 93 
4 96 
4 98 
4 99 
4 102 
4 103 
4 106 
4 107 
4 109 
4 111 
4 113 
4 115 
4 117 
4 120 
4 121 
4 123 
4 125 
4 127 
4 130 
4 131 
4 134 
4 136 
4 137 
4 139 
4 142 
4 144 
4 146 
4 148 
4 150 
4 152 
4 154 
4 156 
4 158 
4 160 
4 161 
4 163 
4 166 
4 167 
4 169 
4 171 
4 174 
4 175 
5 6 
5 90 
5 91 
5 93 
5 96 
5 98 
5 99 
5 102 
5 103 
5 105 
5 108 
5 110 
5 111 
5 113 
5 116 
5 117 
5 119 
5 122 
5 123 
5 125 
5 128 
5 129 
5 131 
5 134 
5 135 
5 137 
5 139 
5 141 
5 143 
5 145 
5 147 
5 149 
5 151 
5 153 
5 155 
5 157 
5 160 
5 161 
5 163 
5 165 
5 167 
5 169 
5 171 
5 174 
5 176 
6 89 
6 92 
6 94 
6 95 
6 97 
6 100 
6 101 
6 104 
6 106 
6 107 
6 109 
6 112 
6 114 
6 115 
6 118 
6 120 
6 121 
6 124 
6 126 
6 127 
6 130 
6 132 
6 133 
6 136 
6 138 
6 140 
6 142 
6 144 
6 146 
6 148 
6 150 
6 152 
6 154 
6 156 
6 158 
6 159 
6 162 
6 164 
6 166 
6 168 
6 170 
6 172 
6 173 
6 175 
7 8 
7 90 
7 92 
7 94 
7 95 
7 97 
7 100 
7 102 
7 103 
7 106 
7 108 
7 109 
7 112 
7 113 
7 116 
7 117 
7 120 
7 121 
7 123 
7 125 
7 128 
7 130 
7 132 
7 133 
7 136 
7 137 
7 140 
7 142 
7 143 
7 146 
7 147 
7 149 
7 152 
7 153 
7 155 
7 157 
7 159 
7 161 
7 163 
7 165 
7 167 
7 170 
7 172 
7 174 
7 175 
8 89 
8 91 
8 93 
8 96 
8 98 
8 99 
8 101 
8 104 
8 105 
8 107 
8 110 
8 111 
8 114 
8 115 
8 118 
8 119 
8 122 
8 124 
8 126 
8 127 
8 129 
8 131 
8 134 
8 135 
8 138 
8 139 
8 141 
8 144 
8 145 
8 148 
8 150 
8 151 
8 154 
8 156 
8 158 
8 160 
8 162 
8 164 
8 166 
8 168 
8 169 
8 171 
8 173 
8 176 
9 10 
9 90 
9 92 
9 94 
9 95 
9 98 
9 99 
9 101 
9 104 
9 105 
9 107 
9 110 
9 112 
9 113 
9 116 
9 117 
9 119 
9 122 
9 123 
9 125 
9 127 
9 130 
9 131 
9 134 
9 136 
9 138 
9 139 
9 141 
9 143 
9 146 
9 148 
9 150 
9 152 
9 153 
9 156 
9 157 
9 159 
9 161 
9 163 
9 166 
9 168 
9 170 
9 172 
9 173 
9 176 
10 89 
10 91 
10 93 
10 96 
10 97 
10 100 
10 102 
10 103 
10 106 
10 108 
10 109 
10 111 
10 114 
10 115 
10 118 
10 120 
10 121 
10 124 
10 126 
10 128 
10 129 
10 132 
10 133 
10 135 
10 137 
10 140 
10 142 
10 144 
10 145 
10 147 
10 149 
10 151 
10 154 
10 155 
10 158 
10 160 
10 162 
10 164 
10 165 
10 167 
10 169 
10 171 
10 174 
10 175 
11 12 
11 90 
11 91 
11 94 
11 96 
11 97 
11 99 
11 101 
11 103 
11 106 
11 108 
11 109 
11 111 
11 114 
11 115 
11 118 
11 119 
11 122 
11 123 
11 125 
11 127 
11 129 
11 132 
11 134 
11 136 
11 137 
11 140 
11 141 
11 143 
11 146 
11 147 
11 150 
11 152 
11 154 
11 156 
11 157 
11 160 
11 161 
11 164 
11 165 
11 168 
11 170 
11 171 
11 173 
11 175 
12 89 
12 92 
12 93 
12 95 
12 98 
12 100 
12 102 
12 104 
12 105 
12 107 
12 110 
12 112 
12 113 
12 116 
12 117 
12 120 
12 121 
12 124 
12 126 
12 128 
12 130 
12 131 
12 133 
12 135 
12 138 
12 139 
12 142 
12 144 
12 145 
12 148 
12 149 
12 151 
12 153 
12 155 
12 158 
12 159 
12 162 
12 163 
12 166 
12 167 
12 169 
12 172 
12 174 
12 176 
13 14 
13 90 
13 91 
13 93 
13 96 
13 97 
13 100 
13 101 
13 104 
13 106 
13 108 
13 109 
13 112 
13 113 
13 115 
13 117 
13 119 
13 122 
13 123 
13 125 
13 128 
13 130 
13 131 
13 133 
13 135 
13 137 
13 139 
13 142 
13 144 
13 146 
13 147 
13 150 
13 151 
13 154 
13 155 
13 158 
13 159 
13 162 
13 163 
13 166 
13 168 
13 170 
13 171 
13 173 
13 176 
14 89 
14 92 
14 94 
14 95 
14 98 
14 99 
14 102 
14 103 
14 105 
14 107 
14 110 
14 111 
14 114 
14 116 
14 118 
14 120 
14 121 
14 124 
14 126 
14 127 
14 129 
14 132 
14 134 
14 136 
14 138 
14 140 
14 141 
14 143 
14 145 
14 148 
14 149 
14 152 
14 153 
14 156 
14 157 
14 160 
14 161 
14 164 
14 165 
14 167 
14 169 
14 172 
14 174 
14 175 
15 16 
15 90 
15 92 
15 93 
15 96 
15 97 
15 99 
15 101 
15 104 
15 105 
15 107 
15 109 
15 112 
15 114 
15 116 
15 117 
15 120 
15 121 
15 124 
15 126 
15 127 
15 129 
15 131 
15 133 
15 135 
15 137 
15 139 
15 142 
15 143 
15 146 
15 147 
15 150 
15 152 
15 153 
15 156 
15 157 
15 160 
15 162 
15 164 
15 165 
15 167 
15 170 
15 171 
15 174 
15 176 
16 89 
16 91 
16 94 
16 95 
16 98 
16 100 
16 102 
16 103 
16 106 
16 108 
16 110 
16 111 
16 113 
16 115 
16 118 
16 119 
16 122 
16 123 
16 125 
16 128 
16 130 
16 132 
16 134 
16 136 
16 138 
16 140 
16 141 
16 144 
16 145 
16 148 
16 149 
16 151 
16 154 
16 155 
16 158 
16 159 
16 161 
16 163 
16 166 
16 168 
16 169 
16 172 
16 173 
16 175 
17 18 
17 89 
17 92 
17 94 
17 96 
17 97 
17 100 
17 101 
17 104 
17 106 
17 108 
17 110 
17 111 
17 114 
17 116 
17 118 
17 120 
17 122 
17 123 
17 126 
17 127 
17 130 
17 131 
17 133 
17 136 
17 138 
17 139 
17 141 
17 143 
17 145 
17 147 
17 150 
17 152 
17 154 
17 155 
17 158 
17 159 
17 161 
17 163 
17 165 
17 167 
17 169 
17 171 
17 174 
17 176 
18 90 
18 91 
18 93 
18 95 
18 98 
18 99 
18 102 
18 103 
18 105 
18 107 
18 109 
18 112 
18 113 
18 115 
18 117 
18 119 
18 121 
18 124 
18 125 
18 128 
18 129 
18 132 
18 134 
18 135 
18 137 
18 140 
18 142 
18 144 
18 146 
18 148 
18 149 
18 151 
18 153 
18 156 
18 157 
18 160 
18 162 
18 164 
18 166 
18 168 
18 170 
18 172 
18 173 
18 175 
19 20 
19 90 
19 92 
19 93 
19 95 
19 97 
19 99 
19 102 
19 104 
19 106 
19 108 
19 110 
19 111 
19 113 
19 115 
19 117 
19 120 
19 122 
19 124 
19 126 
19 127 
19 129 
19 131 
19 133 
19 136 
19 138 
19 139 
19 142 
19 143 
19 146 
19 147 
19 149 
19 151 
19 154 
19 155 
19 157 
19 160 
19 161 
19 164 
19 166 
19 168 
19 169 
19 172 
19 173 
19 175 
20 89 
20 91 
20 94 
20 96 
20 98 
20 100 
20 101 
20 103 
20 105 
20 107 
20 109 
20 112 
20 114 
20 116 
20 118 
20 119 
20 121 
20 123 
20 125 
20 128 
20 130 
20 132 
20 134 
20 135 
20 137 
20 140 
20 141 
20 144 
20 145 
20 148 
20 150 
20 152 
20 153 
20 156 
20 158 
20 159 
20 162 
20 163 
20 165 
20 167 
20 170 
20 171 
20 174 
20 176 
21 22 
21 89 
21 92 
21 93 
21 96 
21 98 
21 100 
21 102 
21 104 
21 105 
21 108 
21 109 
21 111 
21 114 
21 116 
21 117 
21 119 
21 122 
21 124 
21 126 
21 127 
21 130 
21 132 
21 134 
21 136 
21 137 
21 140 
21 142 
21 143 
21 146 
21 148 
21 150 
21 151 
21 153 
21 155 
21 157 
21 159 
21 162 
21 163 
21 165 
21 168 
21 169 
21 171 
21 173 
21 175 
22 90 
22 91 
22 94 
22 95 
22 97 
22 99 
22 101 
22 103 
22 106 
22 107 
22 110 
22 112 
22 113 
22 115 
22 118 
22 120 
22 121 
22 123 
22 125 
22 128 
22 129 
22 131 
22 133 
22 135 
22 138 
22 139 
22 141 
22 144 
22 145 
22 147 
22 149 
22 152 
22 154 
22 156 
22 158 
22 160 
22 161 
22 164 
22 166 
22 167 
22 170 
22 172 
22 174 
22 176 
23 24 
23 89 
23 91 
23 94 
23 95 
23 97 
23 99 
23 102 
23 104 
23 106 
23 107 
23 110 
23 111 
23 113 
23 116 
23 117 
23 120 
23 122 
23 124 
23 125 
23 128 
23 130 
23 132 
23 134 
23 135 
23 137 
23 140 
23 142 
23 143 
23 145 
23 147 
23 150 
23 152 
23 154 
23 156 
23 157 
23 159 
23 162 
23 164 
23 166 
23 167 
23 169 
23 171 
23 173 
23 176 
24 90 
24 92 
24 93 
24 96 
24 98 
24 100 
24 101 
24 103 
24 105 
24 108 
24 109 
24 112 
24 114 
24 115 
24 118 
24 119 
24 121 
24 123 
24 126 
24 127 
24 129 
24 131 
24 133 
24 136 
24 138 
24 139 
24 141 
24 144 
24 146 
24 148 
24 149 
24 151 
24 153 
24 155 
24 158 
24 160 
24 161 
24 163 
24 165 
24 168 
24 170 
24 172 
24 174 
24 175 
25 26 
25 90 
25 91 
25 93 
25 95 
25 97 
25 100 
25 101 
25 104 
25 106 
25 108 
25 110 
25 111 
25 114 
25 116 
25 117 
25 119 
25 121 
25 124 
25 125 
25 127 
25 129 
25 131 
25 134 
25 135 
25 137 
25 140 
25 141 
25 144 
25 146 
25 148 
25 150 
25 152 
25 153 
25 155 
25 158 
25 159 
25 161 
25 164 
25 166 
25 167 
25 169 
25 172 
25 174 
25 175 
26 89 
26 92 
26 94 
26 96 
26 98 
26 99 
26 102 
26 103 
26 105 
26 107 
26 109 
26 112 
26 113 
26 115 
26 118 
26 120 
26 122 
26 123 
26 126 
26 128 
26 130 
26 132 
26 133 
26 136 
26 138 
26 139 
26 142 
26 143 
26 145 
26 147 
26 149 
26 151 
26 154 
26 156 
26 157 
26 160 
26 162 
26 163 
26 165 
26 168 
26 170 
26 171 
26 173 
26 176 
27 28 
27 90 
27 91 
27 94 
27 96 
27 97 
27 100 
27 101 
27 104 
27 106 
27 107 
27 109 
27 112 
27 113 
27 116 
27 117 
27 120 
27 122 
27 123 
27 126 
27 127 
27 129 
27 132 
27 134 
27 135 
27 138 
27 140 
27 142 
27 143 
27 145 
27 148 
27 149 
27 151 
27 153 
27 156 
27 158 
27 160 
27 161 
27 163 
27 166 
27 168 
27 169 
27 171 
27 174 
27 175 
28 89 
28 92 
28 93 
28 95 
28 98 
28 99 
28 102 
28 103 
28 105 
28 108 
28 110 
28 111 
28 114 
28 115 
28 118 
28 119 
28 121 
28 124 
28 125 
28 128 
28 130 
28 131 
28 133 
28 136 
28 137 
28 139 
28 141 
28 144 
28 146 
28 147 
28 150 
28 152 
28 154 
28 155 
28 157 
28 159 
28 162 
28 164 
28 165 
28 167 
28 170 
28 172 
28 173 
28 176 
29 30 
29 89 
29 92 
29 94 
29 96 
29 97 
29 99 
29 101 
29 103 
29 105 
29 108 
29 110 
29 112 
29 113 
29 116 
29 117 
29 120 
29 121 
29 124 
29 126 
29 128 
29 129 
29 132 
29 134 
29 135 
29 137 
29 139 
29 141 
29 144 
29 146 
29 147 
29 150 
29 151 
29 154 
29 156 
29 158 
29 159 
29 161 
29 163 
29 165 
29 168 
29 169 
29 172 
29 173 
29 175 
30 90 
30 91 
30 93 
30 95 
30 98 
30 100 
30 102 
30 104 
30 106 
30 107 
30 109 
30 111 
30 114 
30 115 
30 118 
30 119 
30 122 
30 123 
30 125 
30 127 
30 130 
30 131 
30 133 
30 136 
30 138 
30 140 
30 142 
30 143 
30 145 
30 148 
30 149 
30 152 
30 153 
30 155 
30 157 
30 160 
30 162 
30 164 
30 166 
30 167 
30 170 
30 171 
30 174 
30 176 
31 32 
31 90 
31 91 
31 93 
31 96 
31 97 
31 99 
31 102 
31 103 
31 106 
31 107 
31 109 
31 111 
31 114 
31 116 
31 118 
31 120 
31 121 
31 123 
31 126 
31 127 
31 130 
31 132 
31 134 
31 135 
31 138 
31 139 
31 141 
31 144 
31 146 
31 147 
31 149 
31 152 
31 153 
31 155 
31 157 
31 159 
31 162 
31 163 
31 166 
31 168 
31 169 
31 172 
31 173 
31 176 
32 89 
32 92 
32 94 
32 95 
32 98 
32 100 
32 101 
32 104 
32 105 
32 108 
32 110 
32 112 
32 113 
32 115 
32 117 
32 119 
32 122 
32 124 
32 125 
32 128 
32 129 
32 131 
32 133 
32 136 
32 137 
32 140 
32 142 
32 143 
32 145 
32 148 
32 150 
32 151 
32 154 
32 156 
32 158 
32 160 
32 161 
32 164 
32 165 
32 167 
32 170 
32 171 
32 174 
32 175 
33 34 
33 89 
33 91 
33 93 
33 96 
33 98 
33 100 
33 101 
33 103 
33 105 
33 107 
33 110 
33 112 
33 114 
33 116 
33 117 
33 120 
33 122 
33 123 
33 126 
33 128 
33 129 
33 131 
33 134 
33 136 
33 138 
33 140 
33 142 
33 144 
33 146 
33 147 
33 149 
33 152 
33 154 
33 155 
33 157 
33 159 
33 161 
33 164 
33 166 
33 167 
33 170 
33 171 
33 173 
33 175 
34 90 
34 92 
34 94 
34 95 
34 97 
34 99 
34 102 
34 104 
34 106 
34 108 
34 109 
34 111 
34 113 
34 115 
34 118 
34 119 
34 121 
34 124 
34 125 
34 127 
34 130 
34 132 
34 133 
34 135 
34 137 
34 139 
34 141 
34 143 
34 145 
34 148 
34 150 
34 151 
34 153 
34 156 
34 158 
34 160 
34 162 
34 163 
34 165 
34 168 
34 169 
34 172 
34 174 
34 176 
35 36 
35 90 
35 92 
35 94 
35 96 
35 98 
35 100 
35 102 
35 104 
35 106 
35 108 
35 110 
35 112 
35 114 
35 115 
35 117 
35 120 
35 122 
35 123 
35 126 
35 128 
35 130 
35 131 
35 134 
35 135 
35 137 
35 140 
35 141 
35 144 
35 146 
35 148 
35 149 
35 152 
35 154 
35 156 
35 157 
35 160 
35 162 
35 164 
35 165 
35 168 
35 169 
35 172 
35 174 
35 176 
36 89 
36 91 
36 93 
36 95 
36 97 
36 99 
36 101 
36 103 
36 105 
36 107 
36 109 
36 111 
36 113 
36 116 
36 118 
36 119 
36 121 
36 124 
36 125 
36 127 
36 129 
36 132 
36 133 
36 136 
36 138 
36 139 
36 142 
36 143 
36 145 
36 147 
36 150 
36 151 
36 153 
36 155 
36 158 
36 159 
36 161 
36 163 
36 166 
36 167 
36 170 
36 171 
36 173 
36 175 
37 38 
37 90 
37 91 
37 94 
37 95 
37 97 
37 99 
37 101 
37 104 
37 105 
37 108 
37 109 
37 111 
37 113 
37 116 
37 118 
37 119 
37 121 
37 123 
37 126 
37 128 
37 130 
37 131 
37 134 
37 136 
37 138 
37 139 
37 142 
37 144 
37 146 
37 148 
37 149 
37 151 
37 154 
37 156 
37 157 
37 159 
37 162 
37 164 
37 165 
37 167 
37 169 
37 171 
37 174 
37 175 
38 89 
38 92 
38 93 
38 96 
38 98 
38 100 
38 102 
38 103 
38 106 
38 107 
38 110 
38 112 
38 114 
38 115 
38 117 
38 120 
38 122 
38 124 
38 125 
38 127 
38 129 
38 132 
38 133 
38 135 
38 137 
38 140 
38 141 
38 143 
38 145 
38 147 
38 150 
38 152 
38 153 
38 155 
38 158 
38 160 
38 161 
38 163 
38 166 
38 168 
38 170 
38 172 
38 173 
38 176 
39 40 
39 90 
39 91 
39 93 
39 96 
39 98 
39 99 
39 102 
39 104 
39 106 
39 108 
39 110 
39 112 
39 114 
39 116 
39 118 
39 119 
39 121 
39 124 
39 126 
39 128 
39 130 
39 132 
39 134 
39 136 
39 138 
39 140 
39 142 
39 143 
39 146 
39 147 
39 150 
39 151 
39 154 
39 156 
39 158 
39 160 
39 161 
39 163 
39 166 
39 167 
39 170 
39 172 
39 174 
39 176 
40 89 
40 92 
40 94 
40 95 
40 97 
40 100 
40 101 
40 103 
40 105 
40 107 
40 109 
40 111 
40 113 
40 115 
40 117 
40 120 
40 122 
40 123 
40 125 
40 127 
40 129 
40 131 
40 133 
40 135 
40 137 
40 139 
40 141 
40 144 
40 145 
40 148 
40 149 
40 152 
40 153 
40 155 
40 157 
40 159 
40 162 
40 164 
40 165 
40 168 
40 169 
40 171 
40 173 
40 175 
41 42 
41 89 
41 91 
41 94 
41 96 
41 97 
41 99 
41 102 
41 104 
41 105 
41 107 
41 109 
41 111 
41 114 
41 115 
41 117 
41 119 
41 122 
41 124 
41 125 
41 128 
41 129 
41 131 
41 133 
41 136 
41 138 
41 140 
41 142 
41 144 
41 146 
41 147 
41 149 
41 152 
41 153 
41 156 
41 158 
41 159 
41 161 
41 163 
41 165 
41 168 
41 169 
41 172 
41 174 
41 176 
42 90 
42 92 
42 93 
42 95 
42 98 
42 100 
42 101 
42 103 
42 106 
42 108 
42 110 
42 112 
42 113 
42 116 
42 118 
42 120 
42 121 
42 123 
42 126 
42 127 
42 130 
42 132 
42 134 
42 135 
42 137 
42 139 
42 141 
42 143 
42 145 
42 148 
42 150 
42 151 
42 154 
42 155 
42 157 
42 160 
42 162 
42 164 
42 166 
42 167 
42 170 
42 171 
42 173 
42 175 
43 44 
43 90 
43 92 
43 94 
43 95 
43 97 
43 99 
43 102 
43 103 
43 105 
43 107 
43 110 
43 112 
43 114 
43 115 
43 118 
43 119 
43 122 
43 123 
43 126 
43 127 
43 129 
43 132 
43 133 
43 135 
43 137 
43 140 
43 142 
43 144 
43 146 
43 148 
43 150 
43 151 
43 154 
43 155 
43 157 
43 159 
43 161 
43 163 
43 166 
43 167 
43 169 
43 171 
43 174 
43 176 
44 89 
44 91 
44 93 
44 96 
44 98 
44 100 
44 101 
44 104 
44 106 
44 108 
44 109 
44 111 
44 113 
44 116 
44 117 
44 120 
44 121 
44 124 
44 125 
44 128 
44 130 
44 131 
44 134 
44 136 
44 138 
44 139 
44 141 
44 143 
44 145 
44 147 
44 149 
44 152 
44 153 
44 156 
44 158 
44 160 
44 162 
44 164 
44 165 
44 168 
44 170 
44 172 
44 173 
44 175 
45 46 
45 89 
45 91 
45 94 
45 95 
45 97 
45 99 
45 102 
45 103 
45 106 
45 107 
45 110 
45 112 
45 114 
45 116 
45 117 
45 119 
45 122 
45 123 
45 126 
45 127 
45 130 
45 131 
45 134 
45 136 
45 137 
45 139 
45 142 
45 144 
45 145 
45 147 
45 150 
45 151 
45 153 
45 155 
45 158 
45 160 
45 162 
45 164 
45 165 
45 168 
45 170 
45 172 
45 174 
45 175 
46 90 
46 92 
46 93 
46 96 
46 98 
46 100 
46 101 
46 104 
46 105 
46 108 
46 109 
46 111 
46 113 
46 115 
46 118 
46 120 
46 121 
46 124 
46 125 
46 128 
46 129 
46 132 
46 133 
46 135 
46 138 
46 140 
46 141 
46 143 
46 146 
46 148 
46 149 
46 152 
46 154 
46 156 
46 157 
46 159 
46 161 
46 163 
46 166 
46 167 
46 169 
46 171 
46 173 
46 176 
47 48 
47 90 
47 92 
47 93 
47 95 
47 97 
47 100 
47 101 
47 103 
47 105 
47 107 
47 110 
47 111 
47 114 
47 115 
47 118 
47 120 
47 122 
47 123 
47 125 
47 128 
47 130 
47 131 
47 134 
47 135 
47 138 
47 140 
47 142 
47 143 
47 146 
47 147 
47 150 
47 151 
47 153 
47 156 
47 158 
47 160 
47 162 
47 163 
47 165 
47 167 
47 169 
47 172 
47 173 
47 175 
48 89 
48 91 
48 94 
48 96 
48 98 
48 99 
48 102 
48 104 
48 106 
48 108 
48 109 
48 112 
48 113 
48 116 
48 117 
48 119 
48 121 
48 124 
48 126 
48 127 
48 129 
48 132 
48 133 
48 136 
48 137 
48 139 
48 141 
48 144 
48 145 
48 148 
48 149 
48 152 
48 154 
48 155 
48 157 
48 159 
48 161 
48 164 
48 166 
48 168 
48 170 
48 171 
48 174 
48 176 
49 50 
49 89 
49 91 
49 93 
49 95 
49 97 
49 100 
49 102 
49 103 
49 105 
49 108 
49 110 
49 112 
49 114 
49 116 
49 117 
49 119 
49 121 
49 123 
49 125 
49 127 
49 130 
49 132 
49 133 
49 135 
49 138 
49 139 
49 142 
49 143 
49 146 
49 148 
49 149 
49 152 
49 154 
49 156 
49 158 
49 160 
49 161 
49 164 
49 165 
49 168 
49 169 
49 171 
49 173 
49 176 
50 90 
50 92 
50 94 
50 96 
50 98 
50 99 
50 101 
50 104 
50 106 
50 107 
50 109 
50 111 
50 113 
50 115 
50 118 
50 120 
50 122 
50 124 
50 126 
50 128 
50 129 
50 131 
50 134 
50 136 
50 137 
50 140 
50 141 
50 144 
50 145 
50 147 
50 150 
50 151 
50 153 
50 155 
50 157 
50 159 
50 162 
50 163 
50 166 
50 167 
50 170 
50 172 
50 174 
50 175 
51 52 
51 89 
51 92 
51 93 
51 96 
51 97 
51 100 
51 102 
51 104 
51 106 
51 107 
51 110 
51 112 
51 113 
51 115 
51 118 
51 119 
51 122 
51 124 
51 125 
51 127 
51 130 
51 132 
51 134 
51 135 
51 138 
51 139 
51 141 
51 144 
51 146 
51 147 
51 149 
51 151 
51 153 
51 156 
51 157 
51 159 
51 161 
51 164 
51 165 
51 167 
51 170 
51 171 
51 174 
51 175 
52 90 
52 91 
52 94 
52 95 
52 98 
52 99 
52 101 
52 103 
52 105 
52 108 
52 109 
52 111 
52 114 
52 116 
52 117 
52 120 
52 121 
52 123 
52 126 
52 128 
52 129 
52 131 
52 133 
52 136 
52 137 
52 140 
52 142 
52 143 
52 145 
52 148 
52 150 
52 152 
52 154 
52 155 
52 158 
52 160 
52 162 
52 163 
52 166 
52 168 
52 169 
52 172 
52 173 
52 176 
53 54 
53 89 
53 92 
53 93 
53 95 
53 98 
53 99 
53 102 
53 103 
53 106 
53 108 
53 109 
53 112 
53 113 
53 116 
53 118 
53 119 
53 122 
53 123 
53 126 
53 128 
53 129 
53 131 
53 133 
53 135 
53 138 
53 140 
53 141 
53 143 
53 146 
53 147 
53 150 
53 152 
53 153 
53 156 
53 158 
53 159 
53 162 
53 164 
53 166 
53 168 
53 169 
53 171 
53 174 
53 175 
54 90 
54 91 
54 94 
54 96 
54 97 
54 100 
54 101 
54 104 
54 105 
54 107 
54 110 
54 111 
54 114 
54 115 
54 117 
54 120 
54 121 
54 124 
54 125 
54 127 
54 130 
54 132 
54 134 
54 136 
54 137 
54 139 
54 142 
54 144 
54 145 
54 148 
54 149 
54 151 
54 154 
54 155 
54 157 
54 160 
54 161 
54 163 
54 165 
54 167 
54 170 
54 172 
54 173 
54 176 
55 56 
55 90 
55 92 
55 94 
55 96 
55 97 
55 100 
55 102 
55 103 
55 105 
55 108 
55 110 
55 111 
55 113 
55 116 
55 118 
55 120 
55 122 
55 124 
55 125 
55 128 
55 129 
55 132 
55 134 
55 136 
55 138 
55 139 
55 142 
55 144 
55 146 
55 148 
55 150 
55 152 
55 153 
55 155 
55 158 
55 160 
55 162 
55 164 
55 166 
55 168 
55 170 
55 171 
55 174 
55 176 
56 89 
56 91 
56 93 
56 95 
56 98 
56 99 
56 101 
56 104 
56 106 
56 107 
56 109 
56 112 
56 114 
56 115 
56 117 
56 119 
56 121 
56 123 
56 126 
56 127 
56 130 
56 131 
56 133 
56 135 
56 137 
56 140 
56 141 
56 143 
56 145 
56 147 
56 149 
56 151 
56 154 
56 156 
56 157 
56 159 
56 161 
56 163 
56 165 
56 167 
56 169 
56 172 
56 173 
56 175 
57 58 
57 89 
57 92 
57 93 
57 95 
57 98 
57 99 
57 101 
57 104 
57 106 
57 107 
57 109 
57 111 
57 114 
57 116 
57 118 
57 120 
57 122 
57 123 
57 125 
57 128 
57 129 
57 132 
57 134 
57 135 
57 137 
57 139 
57 142 
57 143 
57 146 
57 148 
57 149 
57 151 
57 154 
57 155 
57 158 
57 159 
57 161 
57 164 
57 165 
57 168 
57 170 
57 172 
57 174 
57 176 
58 90 
58 91 
58 94 
58 96 
58 97 
58 100 
58 102 
58 103 
58 105 
58 108 
58 110 
58 112 
58 113 
58 115 
58 117 
58 119 
58 121 
58 124 
58 126 
58 127 
58 130 
58 131 
58 133 
58 136 
58 138 
58 140 
58 141 
58 144 
58 145 
58 147 
58 150 
58 152 
58 153 
58 156 
58 157 
58 160 
58 162 
58 163 
58 166 
58 167 
58 169 
58 171 
58 173 
58 175 
59 60 
59 89 
59 91 
59 94 
59 96 
59 98 
59 99 
59 101 
59 103 
59 106 
59 108 
59 109 
59 112 
59 113 
59 116 
59 118 
59 120 
59 122 
59 124 
59 125 
59 127 
59 130 
59 131 
59 133 
59 135 
59 138 
59 140 
59 142 
59 144 
59 146 
59 148 
59 150 
59 151 
59 153 
59 155 
59 157 
59 160 
59 161 
59 164 
59 165 
59 167 
59 169 
59 172 
59 173 
59 176 
60 90 
60 92 
60 93 
60 95 
60 97 
60 100 
60 102 
60 104 
60 105 
60 107 
60 110 
60 111 
60 114 
60 115 
60 117 
60 119 
60 121 
60 123 
60 126 
60 128 
60 129 
60 132 
60 134 
60 136 
60 137 
60 139 
60 141 
60 143 
60 145 
60 147 
60 149 
60 152 
60 154 
60 156 
60 158 
60 159 
60 162 
60 163 
60 166 
60 168 
60 170 
60 171 
60 174 
60 175 
61 62 
61 89 
61 91 
61 93 
61 96 
61 97 
61 99 
61 101 
61 103 
61 105 
61 108 
61 110 
61 111 
61 113 
61 115 
61 117 
61 120 
61 122 
61 123 
61 126 
61 127 
61 130 
61 132 
61 133 
61 136 
61 137 
61 140 
61 141 
61 143 
61 146 
61 148 
61 149 
61 151 
61 153 
61 156 
61 158 
61 159 
61 162 
61 164 
61 166 
61 167 
61 170 
61 172 
61 174 
61 176 
62 90 
62 92 
62 94 
62 95 
62 98 
62 100 
62 102 
62 104 
62 106 
62 107 
62 109 
62 112 
62 114 
62 116 
62 118 
62 119 
62 121 
62 124 
62 125 
62 128 
62 129 
62 131 
62 134 
62 135 
62 138 
62 139 
62 142 
62 144 
62 145 
62 147 
62 150 
62 152 
62 154 
62 155 
62 157 
62 160 
62 161 
62 163 
62 165 
62 168 
62 169 
62 171 
62 173 
62 175 
63 64 
63 89 
63 91 
63 93 
63 95 
63 97 
63 100 
63 101 
63 103 
63 106 
63 107 
63 109 
63 112 
63 113 
63 115 
63 117 
63 119 
63 122 
63 124 
63 126 
63 128 
63 129 
63 132 
63 134 
63 136 
63 138 
63 139 
63 141 
63 143 
63 146 
63 148 
63 150 
63 152 
63 154 
63 155 
63 157 
63 160 
63 162 
63 163 
63 165 
63 167 
63 169 
63 172 
63 174 
63 176 
64 90 
64 92 
64 94 
64 96 
64 98 
64 99 
64 102 
64 104 
64 105 
64 108 
64 110 
64 111 
64 114 
64 116 
64 118 
64 120 
64 121 
64 123 
64 125 
64 127 
64 130 
64 131 
64 133 
64 135 
64 137 
64 140 
64 142 
64 144 
64 145 
64 147 
64 149 
64 151 
64 153 
64 156 
64 158 
64 159 
64 161 
64 164 
64 166 
64 168 
64 170 
64 171 
64 173 
64 175 
65 66 
65 90 
65 92 
65 94 
65 95 
65 98 
65 100 
65 101 
65 103 
65 106 
65 107 
65 109 
65 111 
65 114 
65 116 
65 117 
65 119 
65 122 
65 124 
65 126 
65 128 
65 130 
65 132 
65 133 
65 136 
65 137 
65 139 
65 141 
65 144 
65 146 
65 147 
65 149 
65 151 
65 153 
65 156 
65 158 
65 160 
65 161 
65 164 
65 166 
65 167 
65 169 
65 171 
65 173 
65 176 
66 89 
66 91 
66 93 
66 96 
66 97 
66 99 
66 102 
66 104 
66 105 
66 108 
66 110 
66 112 
66 113 
66 115 
66 118 
66 120 
66 121 
66 123 
66 125 
66 127 
66 129 
66 131 
66 134 
66 135 
66 138 
66 140 
66 142 
66 143 
66 145 
66 148 
66 150 
66 152 
66 154 
66 155 
66 157 
66 159 
66 162 
66 163 
66 165 
66 168 
66 170 
66 172 
66 174 
66 175 
67 68 
67 89 
67 91 
67 93 
67 95 
67 97 
67 100 
67 102 
67 104 
67 106 
67 107 
67 110 
67 111 
67 113 
67 116 
67 118 
67 120 
67 121 
67 123 
67 126 
67 128 
67 129 
67 131 
67 133 
67 136 
67 137 
67 140 
67 141 
67 144 
67 146 
67 148 
67 150 
67 151 
67 153 
67 156 
67 157 
67 160 
67 161 
67 163 
67 165 
67 168 
67 170 
67 171 
67 173 
67 176 
68 90 
68 92 
68 94 
68 96 
68 98 
68 99 
68 101 
68 103 
68 105 
68 108 
68 109 
68 112 
68 114 
68 115 
68 117 
68 119 
68 122 
68 124 
68 125 
68 127 
68 130 
68 132 
68 134 
68 135 
68 138 
68 139 
68 142 
68 143 
68 145 
68 147 
68 149 
68 152 
68 154 
68 155 
68 158 
68 159 
68 162 
68 164 
68 166 
68 167 
68 169 
68 172 
68 174 
68 175 
69 70 
69 89 
69 92 
69 94 
69 96 
69 97 
69 99 
69 101 
69 103 
69 106 
69 107 
69 110 
69 111 
69 114 
69 116 
69 117 
69 119 
69 121 
69 124 
69 125 
69 128 
69 130 
69 131 
69 133 
69 135 
69 138 
69 140 
69 141 
69 143 
69 146 
69 148 
69 149 
69 151 
69 154 
69 155 
69 157 
69 160 
69 162 
69 163 
69 166 
69 168 
69 170 
69 171 
69 174 
69 175 
70 90 
70 91 
70 93 
70 95 
70 98 
70 100 
70 102 
70 104 
70 105 
70 108 
70 109 
70 112 
70 113 
70 115 
70 118 
70 120 
70 122 
70 123 
70 126 
70 127 
70 129 
70 132 
70 134 
70 136 
70 137 
70 139 
70 142 
70 144 
70 145 
70 147 
70 150 
70 152 
70 153 
70 156 
70 158 
70 159 
70 161 
70 164 
70 165 
70 167 
70 169 
70 172 
70 173 
70 176 
71 72 
71 90 
71 91 
71 93 
71 95 
71 98 
71 99 
71 101 
71 104 
71 105 
71 107 
71 110 
71 112 
71 113 
71 116 
71 118 
71 120 
71 122 
71 124 
71 125 
71 127 
71 130 
71 132 
71 133 
71 136 
71 137 
71 140 
71 141 
71 144 
71 146 
71 147 
71 149 
71 152 
71 154 
71 155 
71 158 
71 160 
71 162 
71 163 
71 165 
71 168 
71 169 
71 171 
71 174 
71 175 
72 89 
72 92 
72 94 
72 96 
72 97 
72 100 
72 102 
72 103 
72 106 
72 108 
72 109 
72 111 
72 114 
72 115 
72 117 
72 119 
72 121 
72 123 
72 126 
72 128 
72 129 
72 131 
72 134 
72 135 
72 138 
72 139 
72 142 
72 143 
72 145 
72 148 
72 150 
72 151 
72 153 
72 156 
72 157 
72 159 
72 161 
72 164 
72 166 
72 167 
72 170 
72 172 
72 173 
72 176 
73 74 
73 89 
73 92 
73 94 
73 96 
73 97 
73 100 
73 102 
73 104 
73 105 
73 107 
73 109 
73 112 
73 113 
73 116 
73 118 
73 119 
73 121 
73 123 
73 125 
73 127 
73 129 
73 131 
73 134 
73 136 
73 137 
73 140 
73 141 
73 143 
73 146 
73 147 
73 149 
73 151 
73 154 
73 155 
73 158 
73 160 
73 162 
73 164 
73 166 
73 167 
73 169 
73 172 
73 173 
73 176 
74 90 
74 91 
74 93 
74 95 
74 98 
74 99 
74 101 
74 103 
74 106 
74 108 
74 110 
74 111 
74 114 
74 115 
74 117 
74 120 
74 122 
74 124 
74 126 
74 128 
74 130 
74 132 
74 133 
74 135 
74 138 
74 139 
74 142 
74 144 
74 145 
74 148 
74 150 
74 152 
74 153 
74 156 
74 157 
74 159 
74 161 
74 163 
74 165 
74 168 
74 170 
74 171 
74 174 
74 175 
75 76 
75 90 
75 91 
75 94 
75 96 
75 98 
75 100 
75 102 
75 103 
75 106 
75 107 
75 110 
75 111 
75 113 
75 116 
75 118 
75 119 
75 122 
75 124 
75 126 
75 127 
75 129 
75 131 
75 133 
75 135 
75 137 
75 139 
75 142 
75 143 
75 146 
75 148 
75 149 
75 152 
75 154 
75 156 
75 158 
75 159 
75 162 
75 163 
75 165 
75 167 
75 170 
75 172 
75 173 
75 175 
76 89 
76 92 
76 93 
76 95 
76 97 
76 99 
76 101 
76 104 
76 105 
76 108 
76 109 
76 112 
76 114 
76 115 
76 117 
76 120 
76 121 
76 123 
76 125 
76 128 
76 130 
76 132 
76 134 
76 136 
76 138 
76 140 
76 141 
76 144 
76 145 
76 147 
76 150 
76 151 
76 153 
76 155 
76 157 
76 160 
76 161 
76 164 
76 166 
76 168 
76 169 
76 171 
76 174 
76 176 
77 78 
77 89 
77 92 
77 93 
77 95 
77 97 
77 100 
77 101 
77 103 
77 105 
77 108 
77 109 
77 111 
77 113 
77 116 
77 118 
77 119 
77 122 
77 124 
77 126 
77 127 
77 130 
77 131 
77 134 
77 135 
77 137 
77 140 
77 142 
77 144 
77 145 
77 147 
77 149 
77 152 
77 154 
77 156 
77 157 
77 160 
77 161 
77 163 
77 166 
77 168 
77 170 
77 172 
77 174 
77 176 
78 90 
78 91 
78 94 
78 96 
78 98 
78 99 
78 102 
78 104 
78 106 
78 107 
78 110 
78 112 
78 114 
78 115 
78 117 
78 120 
78 121 
78 123 
78 125 
78 128 
78 129 
78 132 
78 133 
78 136 
78 138 
78 139 
78 141 
78 143 
78 146 
78 148 
78 150 
78 151 
78 153 
78 155 
78 158 
78 159 
78 162 
78 164 
78 165 
78 167 
78 169 
78 171 
78 173 
78 175 
79 80 
79 90 
79 91 
79 93 
79 96 
79 97 
79 100 
79 102 
79 103 
79 105 
79 107 
79 109 
79 112 
79 114 
79 116 
79 118 
79 120 
79 122 
79 124 
79 125 
79 128 
79 130 
79 131 
79 133 
79 136 
79 137 
79 139 
79 141 
79 143 
79 145 
79 148 
79 150 
79 151 
79 154 
79 156 
79 157 
79 159 
79 161 
79 164 
79 166 
79 168 
79 169 
79 172 
79 174 
79 175 
80 89 
80 92 
80 94 
80 95 
80 98 
80 99 
80 101 
80 104 
80 106 
80 108 
80 110 
80 111 
80 113 
80 115 
80 117 
80 119 
80 121 
80 123 
80 126 
80 127 
80 129 
80 132 
80 134 
80 135 
80 138 
80 140 
80 142 
80 144 
80 146 
80 147 
80 149 
80 152 
80 153 
80 155 
80 158 
80 160 
80 162 
80 163 
80 165 
80 167 
80 170 
80 171 
80 173 
80 176 
81 82 
81 89 
81 92 
81 93 
81 96 
81 97 
81 99 
81 101 
81 104 
81 106 
81 108 
81 110 
81 112 
81 114 
81 116 
81 118 
81 119 
81 122 
81 123 
81 125 
81 128 
81 129 
81 132 
81 133 
81 136 
81 137 
81 139 
81 142 
81 144 
81 145 
81 148 
81 149 
81 152 
81 153 
81 156 
81 157 
81 160 
81 162 
81 163 
81 166 
81 167 
81 169 
81 172 
81 173 
81 175 
82 90 
82 91 
82 94 
82 95 
82 98 
82 100 
82 102 
82 103 
82 105 
82 107 
82 109 
82 111 
82 113 
82 115 
82 117 
82 120 
82 121 
82 124 
82 126 
82 127 
82 130 
82 131 
82 134 
82 135 
82 138 
82 140 
82 141 
82 143 
82 146 
82 147 
82 150 
82 151 
82 154 
82 155 
82 158 
82 159 
82 161 
82 164 
82 165 
82 168 
82 170 
82 171 
82 174 
82 176 
83 84 
83 89 
83 91 
83 94 
83 95 
83 97 
83 99 
83 102 
83 104 
83 105 
83 108 
83 109 
83 112 
83 114 
83 115 
83 118 
83 120 
83 122 
83 124 
83 126 
83 128 
83 130 
83 131 
83 134 
83 135 
83 137 
83 139 
83 141 
83 143 
83 146 
83 148 
83 149 
83 152 
83 153 
83 155 
83 158 
83 160 
83 161 
83 163 
83 166 
83 167 
83 170 
83 171 
83 173 
83 175 
84 90 
84 92 
84 93 
84 96 
84 98 
84 100 
84 101 
84 103 
84 106 
84 107 
84 110 
84 111 
84 113 
84 116 
84 117 
84 119 
84 121 
84 123 
84 125 
84 127 
84 129 
84 132 
84 133 
84 136 
84 138 
84 140 
84 142 
84 144 
84 145 
84 147 
84 150 
84 151 
84 154 
84 156 
84 157 
84 159 
84 162 
84 164 
84 165 
84 168 
84 169 
84 172 
84 174 
84 176 
85 86 
85 89 
85 91 
85 94 
85 95 
85 98 
85 100 
85 102 
85 104 
85 105 
85 108 
85 109 
85 111 
85 114 
85 116 
85 117 
85 120 
85 122 
85 123 
85 125 
85 127 
85 129 
85 132 
85 133 
85 135 
85 138 
85 139 
85 141 
85 144 
85 146 
85 147 
85 150 
85 151 
85 154 
85 156 
85 157 
85 160 
85 162 
85 163 
85 166 
85 167 
85 170 
85 172 
85 174 
85 175 
86 90 
86 92 
86 93 
86 96 
86 97 
86 99 
86 101 
86 103 
86 106 
86 107 
86 110 
86 112 
86 113 
86 115 
86 118 
86 119 
86 121 
86 124 
86 126 
86 128 
86 130 
86 131 
86 134 
86 136 
86 137 
86 140 
86 142 
86 143 
86 145 
86 148 
86 149 
86 152 
86 153 
86 155 
86 158 
86 159 
86 161 
86 164 
86 165 
86 168 
86 169 
86 171 
86 173 
86 176 
87 88 
87 90 
87 92 
87 93 
87 95 
87 97 
87 99 
87 102 
87 103 
87 106 
87 108 
87 109 
87 112 
87 114 
87 116 
87 117 
87 120 
87 122 
87 124 
87 125 
87 127 
87 129 
87 131 
87 134 
87 136 
87 138 
87 140 
87 141 
87 144 
87 145 
87 148 
87 149 
87 151 
87 154 
87 156 
87 158 
87 159 
87 162 
87 163 
87 165 
87 167 
87 170 
87 171 
87 173 
87 176 
88 89 
88 91 
88 94 
88 96 
88 98 
88 100 
88 101 
88 104 
88 105 
88 107 
88 110 
88 111 
88 113 
88 115 
88 118 
88 119 
88 121 
88 123 
88 126 
88 128 
88 130 
88 132 
88 133 
88 135 
88 137 
88 139 
88 142 
88 143 
88 146 
88 147 
88 150 
88 152 
88 153 
88 155 
88 157 
88 160 
88 161 
88 164 
88 166 
88 168 
88 169 
88 172 
88 174 
88 175 
89 90 
91 92 
93 94 
95 96 
97 98 
99 100 
101 102 
103 104 
105 106 
107 108 
109 110 
111 112 
113 114 
115 116 
117 118 
119 120 
121 122 
123 124 
125 126 
127 128 
129 130 
131 132 
133 134 
135 136 
137 138 
139 140 
141 142 
143 144 
145 146 
147 148 
149 150 
151 152 
153 154 
155 156 
157 158 
159 160 
161 162 
163 164 
165 166 
167 168 
169 170 
171 172 
173 174 
175 176 
